30
250 250 250 
66 80 111 
164 107 101 
64 184 73 
121 86 64 
163 135 99 
85 98 99 
81 102 71 
103 186 146 
152 106 69 
176 139 63 
111 118 63 
69 169 111 
146 133 99 
112 112 112 
133 160 121 
63 129 146 
163 152 69 
110 155 96 
96 136 69 
92 142 73 
84 143 96 
119 133 111 
71 71 101 
146 84 163 
93 86 69 
89 86 81 
101 146 119 
172 73 84 
73 169 146 
99 99 121 
gcut3_3d
